n_res = 4;
rc = [ 16, 19, 21, 17 ];
n_tasks = 30;
d = [ 5, 6, 1, 10, 7, 8, 6, 10, 8, 7, 4, 1, 9, 5, 3, 4, 2, 6, 8, 3, 3, 3, 10, 10, 10, 8, 9, 3, 3, 10 ];
rr = [| 16, 16, 16, 16, 16, 16, 16, 16, 16, 16, 16, 16, 16, 16, 16, 16, 16, 16, 16, 16, 16, 16, 16, 16, 16, 16, 16, 16, 16, 16
      | 19, 19, 19, 19, 19, 19, 19, 19, 19, 19, 19, 19, 19, 19, 19, 19, 19, 19, 19, 19, 19, 19, 19, 19, 19, 19, 19, 19, 19, 19
      | 21, 21, 21, 21, 21, 21, 21, 21, 21, 21, 21, 21, 21, 21, 21, 21, 21, 21, 21, 21, 21, 21, 21, 21, 21, 21, 21, 21, 21, 21
      | 17, 17, 17, 17, 17, 17, 17, 17, 17, 17, 17, 17, 17, 17, 17, 17, 17, 17, 17, 17, 17, 17, 17, 17, 17, 17, 17, 17, 17, 17|];
suc = [ { 4, 6, 7 },
       { 10, 12, 16 },
       { 8, 13 },
       { 5, 15, 20 },
       { 11, 14, 29 },
       { 9, 11, 14 },
       { 10, 15, 30 },
       { 21, 23, 30 },
       { 17, 18, 27 },
       { 13, 17, 18 },
       { 24, 25, 27 },
       { 13, 14, 19 },
       { 20, 22, 25 },
       { 24, 27 },
       { 18, 22, 25 },
       { 17, 20, 22 },
       { 19, 23 },
       { 19, 26 },
       { 21, 29 },
       { 21, 26 },
       { 28 },
       { 23, 26 },
       { 24 },
       { 28 },
       { 28 },
       { 29 },
       { 30 },
       {  },
       {  },
       {  } ];
